This is Ipopt version 3.12.3, running with linear solver mumps.
NOTE: Other linear solvers might be more efficient (see Ipopt documentation).

Number of nonzeros in equality constraint Jacobian...:        0
Number of nonzeros in inequality constraint Jacobian.:        2
Number of nonzeros in Lagrangian Hessian.............:        3

Total number of variables............................:        2
                     variables with only lower bounds:        1
                variables with lower and upper bounds:        1
                     variables with only upper bounds:        0
Total number of equality constraints.................:        0
Total number of inequality constraints...............:        1
        inequality constraints with only lower bounds:        0
   inequality constraints with lower and upper bounds:        0
        inequality constraints with only upper bounds:        1

iter    objective    inf_pr   inf_du lg(mu)  ||d||  lg(rg) alpha_du alpha_pr  ls
   0 -2.3949976e-01 0.00e+00 8.29e+00   0.0 0.00e+00    -  0.00e+00 0.00e+00   0
   1 -2.8085947e+01 0.00e+00 1.62e+00   0.3 4.00e+00    -  4.10e-01 1.00e+00f  1
   2 -3.0890382e+01 0.00e+00 1.41e-07  -1.9 9.48e-01    -  1.00e+00 1.00e+00f  1
   3 -3.0980338e+01 0.00e+00 3.86e-03  -2.0 7.15e-02    -  1.00e+00 9.90e-01f  1
   4 -3.0995034e+01 0.00e+00 9.37e-04  -3.7 3.45e-02    -  9.97e-01 1.00e+00f  1
   5 -3.0998770e+01 0.00e+00 2.04e-10  -4.7 1.74e-02    -  1.00e+00 1.00e+00f  1
   6 -3.0999689e+01 0.00e+00 5.01e-11  -5.3 8.71e-03    -  1.00e+00 1.00e+00f  1
   7 -3.0999922e+01 0.00e+00 1.26e-11  -5.9 4.36e-03    -  1.00e+00 1.00e+00f  1
   8 -3.0999980e+01 0.00e+00 3.17e-12  -6.5 2.19e-03    -  1.00e+00 1.00e+00f  1
   9 -3.0999995e+01 0.00e+00 7.95e-13  -7.1 1.10e-03    -  1.00e+00 1.00e+00f  1
iter    objective    inf_pr   inf_du lg(mu)  ||d||  lg(rg) alpha_du alpha_pr  ls
  10 -3.0999999e+01 0.00e+00 8.48e-06 -11.0 5.50e-04    -  1.00e+00 9.98e-01f  1
  11 -3.1000000e+01 0.00e+00 2.22e-16 -11.0 2.76e-04    -  1.00e+00 1.00e+00f  1
  12 -3.1000000e+01 0.00e+00 2.22e-16 -11.0 1.38e-04    -  1.00e+00 1.00e+00f  1
  13 -3.1000000e+01 0.00e+00 6.97e-16 -11.0 6.88e-05    -  1.00e+00 1.00e+00f  1

Number of Iterations....: 13

                                   (scaled)                 (unscaled)
Objective...............:  -3.1000000041050441e+01   -3.1000000041050441e+01
Dual infeasibility......:   6.9653306415774084e-16    6.9653306415774084e-16
Constraint violation....:   0.0000000000000000e+00    0.0000000000000000e+00
Complementarity.........:   3.7890121823664512e-08    3.7890121823664512e-08
Overall NLP error.......:   3.7890121823664512e-08    3.7890121823664512e-08


Number of objective function evaluations             = 14
Number of objective gradient evaluations             = 14
Number of equality constraint evaluations            = 0
Number of inequality constraint evaluations          = 14
Number of equality constraint Jacobian evaluations   = 0
Number of inequality constraint Jacobian evaluations = 14
Number of Lagrangian Hessian evaluations             = 13
Total CPU secs in IPOPT (w/o function evaluations)   =      0.059
Total CPU secs in NLP function evaluations           =      0.000

EXIT: Optimal Solution Found.
